peakDumbCharging = 14800; 
Machine = anon_enum(16); 
machineSpeed = [3700,3700,3700,3700,3700,3700,3700,3700,3700,3700,3700,3700,3700,3700,3700,3700]; 
machineLoad = [3700,3700,3700,3700,3700,3700,3700,3700,3700,3700,3700,3700,3700,3700,3700,3700]; 
Car = anon_enum(10); 
demandCar = [13760,35680,920,640,7640,240,3840,1120,23200,8400]; 
arrivalCar = [71,71,69,67,67,66,66,64,48,47]; 
departureCar = [76,82,70,68,70,68,68,66,56,50]; 
